benchmark_str_length/p2_10_12-1.dzn
Alphabet = {A,C,G,T};
ns = 10;
nc = 10;
sl = 10;
neighbours = [| I(A),I(G),I(A),Null,Null,Null,Null,Null,Null,Null | I(A),I(C),I(T),I(T),I(A),I(T),Null,Null,Null,Null | I(T),Null,Null,Null,Null,Null,Null,Null,Null,Null | I(T),I(G),I(C),Null,Null,Null,Null,Null,Null,Null | I(C),I(T),Null,Null,Null,Null,Null,Null,Null,Null | I(A),I(C),I(G),I(C),I(G),I(A),I(A),I(G),I(C),Null | I(A),I(T),I(A),I(C),I(T),I(T),I(A),I(G),Null,Null | I(C),I(T),I(T),I(A),I(G),I(G),I(T),I(C),I(T),I(G) | I(G),I(A),I(G),I(C),I(C),I(G),I(C),Null,Null,Null | I(A),I(C),Null,Null,Null,Null,Null,Null,Null,Null |];
