benchmark_str_length/p2_10_12-1.txt
{
	"num_strings": 10,
	"alphabet": "ACGT",
	"strings": [
		"AGA",
		"ACTTAT",
		"T",
		"TGC",
		"CT",
		"ACGCGAAGC",
		"ATACTTAG",
		"CTTAGGTCTG",
		"GAGCCGC",
		"AC"
	],
	"str_length":[3,6,1,3,2,9,8,10,7,2]
}